x = 25;
y = 18;
c = 74;
n = 51;

p = [91  72  18  65  63  45  75  91  19  23  95  56  100  95  45  55  73  85  73  23  72  87  98  37  41  58  20  47  94  98  63  77  14  27  13  49  33  90  82  100  24  95  19  84  92  57  11  17  72  19  12];
w = [2  1  3  6  4  3  6  5  2  8  10  5  5  10  2  9  2  10  9  1  2  7  3  8  9  4  10  4  1  3  10  10  2  7  5  9  3  2  9  1  5  3  6  2  9  1  5  4  4  8  2];
s = [17  1  10  5  11  9  18  5  4  4  2  5  14  6  11  6  18  17  3  12  18  15  15  17  6  14  15  5  14  3  4  1  16  15  9  12  5  1  15  11  11  17  18  4  14  17  5  4  15  13  8];
